(set-info :source |printed by MathSAT|)
(declare-fun |.x{95}| () Int)
(declare-fun |.y{9}| () Int)
(declare-fun |.y{8}| () Int)
(declare-fun |.y{10}| () Int)
(declare-fun |.x{96}| () (Array Int Int))
(declare-fun |.y{11}| () (Array Int Int))
(declare-fun |.x{99}| () Int)
(declare-fun |.y{12}| () Int)
(declare-fun |.x{100}| () (Array Int Int))
(declare-fun |.y{13}| () (Array Int Int))
(declare-fun |.x{98}| () Int)
(declare-fun |.y{14}| () Int)
(declare-fun |.x{92}| () Int)
(declare-fun |.y{15}| () Int)
(declare-fun |.loc{3}| () Bool)
(declare-fun |.loc{5}| () Bool)
(declare-fun |.loc{4}| () Bool)
(declare-fun |.loc{6}| () Bool)
(declare-fun |.x{97}| () Int)
(declare-fun |.x{101}| () Int)
(declare-fun |.x{33}| () Int)
(define-fun .def_22 () Bool (! |.loc{3}| :next |.loc{5}|))
(define-fun .def_91 () Bool (not .def_22))
(define-fun .def_24 () Bool (! |.loc{4}| :next |.loc{6}|))
(define-fun .def_42 () Bool (not .def_24))
(define-fun .def_158 () Bool (! (and .def_42 .def_91) :init true))
(define-fun .def_12 () (Array Int Int) (! |.x{96}| :next |.y{11}|))
(define-fun .def_128 () Int (select .def_12 |.x{97}|))
(define-fun .def_16 () (Array Int Int) (! |.x{100}| :next |.y{13}|))
(define-fun .def_127 () Int (select .def_16 |.x{101}|))
(define-fun .def_129 () Bool (= .def_127 .def_128))
(define-fun .def_142 () Bool (not .def_129))
(define-fun .def_35 () Int (* (- 1) |.x{101}|))
(define-fun .def_18 () Int (! |.x{98}| :next |.y{14}|))
(define-fun .def_100 () Int (+ .def_18 .def_35))
(define-fun .def_14 () Int (! |.x{99}| :next |.y{12}|))
(define-fun .def_101 () Int (+ .def_14 .def_100))
(define-fun .def_102 () Bool (= .def_101 0))
(define-fun .def_143 () Bool (and .def_102 .def_142))
(define-fun .def_20 () Int (! |.x{92}| :next |.y{15}|))
(define-fun .def_106 () Bool (<= .def_20 .def_18))
(define-fun .def_107 () Bool (not .def_106))
(define-fun .def_144 () Bool (and .def_107 .def_143))
(define-fun .def_145 () Bool (and .def_24 .def_144))
(define-fun .def_146 () Bool (and .def_91 .def_145))
(define-fun .def_8 () Int (! |.x{95}| :next |.y{9}|))
(define-fun .def_46 () Bool (<= .def_8 0))
(define-fun .def_44 () Bool (<= |.x{97}| 0))
(define-fun .def_45 () Bool (not .def_44))
(define-fun .def_47 () Bool (or .def_45 .def_46))
(define-fun .def_147 () Bool (and .def_47 .def_146))
(define-fun .def_51 () Bool (not .def_46))
(define-fun .def_148 () Bool (and .def_51 .def_147))
(define-fun .def_149 () Bool (and |.loc{5}| .def_148))
(define-fun .def_71 () Bool (<= .def_14 0))
(define-fun .def_69 () Bool (<= |.x{101}| 0))
(define-fun .def_70 () Bool (not .def_69))
(define-fun .def_72 () Bool (or .def_70 .def_71))
(define-fun .def_150 () Bool (and .def_72 .def_149))
(define-fun .def_79 () Bool (not .def_71))
(define-fun .def_151 () Bool (and .def_79 .def_150))
(define-fun .def_29 () Int (* (- 1) |.x{97}|))
(define-fun .def_123 () Int (+ .def_18 .def_29))
(define-fun .def_124 () Int (+ .def_8 .def_123))
(define-fun .def_125 () Bool (= .def_124 0))
(define-fun .def_152 () Bool (and .def_125 .def_151))
(define-fun .def_140 () Bool (= .def_18 |.y{15}|))
(define-fun .def_133 () Bool (= |.y{14}| 0))
(define-fun .def_109 () Bool (not |.loc{5}|))
(define-fun .def_131 () Bool (and .def_22 .def_109))
(define-fun .def_132 () Bool (and .def_42 .def_131))
(define-fun .def_134 () Bool (and .def_132 .def_133))
(define-fun .def_10 () Int (! |.y{8}| :next |.y{10}|))
(define-fun .def_74 () Bool (<= .def_18 .def_10))
(define-fun .def_135 () Bool (and .def_74 .def_134))
(define-fun .def_49 () Bool (= .def_8 |.y{9}|))
(define-fun .def_136 () Bool (and .def_49 .def_135))
(define-fun .def_116 () Bool (= .def_12 |.y{11}|))
(define-fun .def_137 () Bool (and .def_116 .def_136))
(define-fun .def_59 () Bool (= .def_14 |.y{12}|))
(define-fun .def_138 () Bool (and .def_59 .def_137))
(define-fun .def_119 () Bool (= .def_16 |.y{13}|))
(define-fun .def_139 () Bool (and .def_119 .def_138))
(define-fun .def_141 () Bool (and .def_139 .def_140))
(define-fun .def_153 () Bool (or .def_141 .def_152))
(define-fun .def_104 () Bool (= .def_20 |.y{15}|))
(define-fun .def_96 () Int (* (- 1) |.y{14}|))
(define-fun .def_97 () Int (+ .def_18 .def_96))
(define-fun .def_98 () Bool (= .def_97 (- 1)))
(define-fun .def_103 () Bool (and .def_98 .def_102))
(define-fun .def_105 () Bool (and .def_103 .def_104))
(define-fun .def_108 () Bool (and .def_105 .def_107))
(define-fun .def_110 () Bool (and .def_108 .def_109))
(define-fun .def_111 () Bool (and .def_24 .def_110))
(define-fun .def_112 () Bool (and .def_91 .def_111))
(define-fun .def_113 () Bool (and .def_47 .def_112))
(define-fun .def_114 () Bool (and .def_49 .def_113))
(define-fun .def_115 () Bool (and .def_51 .def_114))
(define-fun .def_117 () Bool (and .def_115 .def_116))
(define-fun .def_118 () Bool (and .def_59 .def_117))
(define-fun .def_120 () Bool (and .def_118 .def_119))
(define-fun .def_121 () Bool (and .def_72 .def_120))
(define-fun .def_122 () Bool (and .def_79 .def_121))
(define-fun .def_126 () Bool (and .def_122 .def_125))
(define-fun .def_130 () Bool (and .def_126 .def_129))
(define-fun .def_154 () Bool (or .def_130 .def_153))
(define-fun .def_155 () Bool (and |.loc{6}| .def_154))
(define-fun .def_88 () Bool (<= |.y{12}| 0))
(define-fun .def_89 () Bool (not .def_88))
(define-fun .def_85 () Bool (<= |.y{14}| 0))
(define-fun .def_86 () Bool (not .def_85))
(define-fun .def_83 () Bool (= |.y{10}| 0))
(define-fun .def_81 () Bool (<= |.y{9}| 0))
(define-fun .def_82 () Bool (not .def_81))
(define-fun .def_84 () Bool (and .def_82 .def_83))
(define-fun .def_87 () Bool (and .def_84 .def_86))
(define-fun .def_90 () Bool (and .def_87 .def_89))
(define-fun .def_92 () Bool (and .def_90 .def_91))
(define-fun .def_93 () Bool (and .def_42 .def_92))
(define-fun .def_94 () Bool (and |.loc{5}| .def_93))
(define-fun .def_77 () Bool (not |.loc{6}|))
(define-fun .def_95 () Bool (and .def_77 .def_94))
(define-fun .def_156 () Bool (or .def_95 .def_155))
(define-fun .def_75 () Bool (not .def_74))
(define-fun .def_66 () (Array Int Int) (store .def_12 |.x{97}| |.x{33}|))
(define-fun .def_67 () Bool (= |.y{11}| .def_66))
(define-fun .def_63 () (Array Int Int) (store .def_16 |.x{101}| |.x{33}|))
(define-fun .def_64 () Bool (= |.y{13}| .def_63))
(define-fun .def_55 () Int (* (- 1) |.y{10}|))
(define-fun .def_56 () Int (+ .def_10 .def_55))
(define-fun .def_57 () Bool (= .def_56 (- 1)))
(define-fun .def_53 () Bool (= .def_18 |.y{14}|))
(define-fun .def_38 () Int (+ .def_14 .def_35))
(define-fun .def_39 () Int (+ .def_10 .def_38))
(define-fun .def_40 () Bool (= .def_39 0))
(define-fun .def_30 () Int (+ .def_10 .def_29))
(define-fun .def_31 () Int (+ .def_8 .def_30))
(define-fun .def_32 () Bool (= .def_31 0))
(define-fun .def_33 () Bool (and .def_22 .def_32))
(define-fun .def_41 () Bool (and .def_33 .def_40))
(define-fun .def_43 () Bool (and .def_41 .def_42))
(define-fun .def_48 () Bool (and .def_43 .def_47))
(define-fun .def_50 () Bool (and .def_48 .def_49))
(define-fun .def_52 () Bool (and .def_50 .def_51))
(define-fun .def_54 () Bool (and .def_52 .def_53))
(define-fun .def_58 () Bool (and .def_54 .def_57))
(define-fun .def_60 () Bool (and .def_58 .def_59))
(define-fun .def_61 () Bool (and |.loc{5}| .def_60))
(define-fun .def_65 () Bool (and .def_61 .def_64))
(define-fun .def_68 () Bool (and .def_65 .def_67))
(define-fun .def_73 () Bool (and .def_68 .def_72))
(define-fun .def_76 () Bool (and .def_73 .def_75))
(define-fun .def_78 () Bool (and .def_76 .def_77))
(define-fun .def_80 () Bool (and .def_78 .def_79))
(define-fun .def_157 () Bool (! (or .def_80 .def_156) :trans true))
(define-fun .def_159 () Bool (and .def_22 .def_24))
(define-fun .def_160 () Bool (! (not .def_159) :invar-property 0))
(assert true)
